8 8
  0	23	1	93	2	63	3	89	4	61	5	63	6	12	7	65	
  0	48	1	35	2	14	3	25	4	47	5	88	6	42	7	51	
  0	74	1	70	2	84	3	14	4	48	5	34	6	97	7	58	
  0	4	1	95	2	80	3	85	4	30	5	47	6	72	7	55	
  0	62	1	83	2	76	3	68	4	99	5	35	6	29	7	48	
  0	4	1	73	2	39	3	89	4	53	5	96	6	85	7	9	
  0	69	1	66	2	2	3	8	4	54	5	13	6	85	7	85	
  0	74	1	22	2	66	3	30	4	65	5	13	6	89	7	70	
